40
1 0 7
2 0 15
2 1 49
3 0 45
3 1 14
3 2 18
4 0 44
4 1 9
4 2 37
4 3 12
5 0 18
5 1 9
5 2 10
5 3 16
5 4 11
6 0 31
6 1 21
6 2 36
6 3 40
6 4 3
6 5 25
7 0 4
7 1 35
7 2 1
7 3 22
7 4 16
7 5 48
7 6 33
8 0 5
8 1 19
8 2 47
8 3 8
8 4 24
8 5 44
8 6 3
8 7 10
9 0 3
9 1 31
9 2 2
9 3 17
9 4 35
9 5 15
9 6 25
9 7 39
9 8 8
10 0 44
10 1 44
10 2 50
10 3 15
10 4 13
10 5 4
10 6 27
10 7 22
10 8 22
10 9 16
11 0 20
11 1 41
11 2 18
11 3 8
11 4 13
11 5 31
11 6 40
11 7 27
11 8 11
11 9 6
11 10 16
12 0 21
12 1 50
12 2 18
12 3 1
12 4 15
12 5 28
12 6 46
12 7 29
12 8 35
12 9 29
12 10 34
12 11 41
13 0 23
13 1 35
13 2 5
13 3 46
13 4 14
13 5 42
13 6 47
13 7 39
13 8 7
13 9 17
13 10 33
13 11 24
13 12 9
14 0 38
14 1 49
14 2 20
14 3 19
14 4 26
14 5 9
14 6 44
14 7 7
14 8 29
14 9 6
14 10 14
14 11 24
14 12 2
14 13 13
15 0 35
15 1 26
15 2 21
15 3 1
15 4 4
15 5 28
15 6 31
15 7 10
15 8 49
15 9 36
15 10 11
15 11 22
15 12 34
15 13 2
15 14 23
16 0 39
16 1 7
16 2 35
16 3 2
16 4 1
16 5 3
16 6 17
16 7 31
16 8 14
16 9 50
16 10 2
16 11 32
16 12 43
16 13 21
16 14 16
16 15 41
17 0 28
17 1 5
17 2 49
17 3 27
17 4 1
17 5 2
17 6 3
17 7 47
17 8 22
17 9 8
17 10 48
17 11 13
17 12 1
17 13 13
17 14 24
17 15 2
17 16 2
18 0 44
18 1 21
18 2 4
18 3 8
18 4 17
18 5 4
18 6 6
18 7 26
18 8 40
18 9 37
18 10 48
18 11 36
18 12 19
18 13 33
18 14 11
18 15 35
18 16 27
18 17 34
19 0 3
19 1 11
19 2 7
19 3 9
19 4 25
19 5 10
19 6 8
19 7 47
19 8 14
19 9 22
19 10 44
19 11 21
19 12 20
19 13 17
19 14 43
19 15 3
19 16 25
19 17 24
19 18 7
20 0 4
20 1 1
20 2 26
20 3 33
20 4 33
20 5 41
20 6 26
20 7 25
20 8 21
20 9 24
20 10 29
20 11 33
20 12 40
20 13 25
20 14 38
20 15 17
20 16 20
20 17 19
20 18 20
20 19 8
21 0 43
21 1 46
21 2 5
21 3 28
21 4 23
21 5 26
21 6 30
21 7 16
21 8 26
21 9 7
21 10 38
21 11 9
21 12 33
21 13 19
21 14 26
21 15 36
21 16 5
21 17 30
21 18 39
21 19 6
21 20 31
22 0 9
22 1 8
22 2 25
22 3 6
22 4 21
22 5 28
22 6 38
22 7 32
22 8 25
22 9 26
22 10 19
22 11 17
22 12 35
22 13 7
22 14 27
22 15 39
22 16 25
22 17 43
22 18 10
22 19 37
22 20 30
22 21 25
23 0 26
23 1 1
23 2 40
23 3 16
23 4 20
23 5 10
23 6 15
23 7 38
23 8 2
23 9 19
23 10 43
23 11 28
23 12 1
23 13 3
23 14 39
23 15 11
23 16 2
23 17 9
23 18 1
23 19 36
23 20 30
23 21 17
23 22 23
24 0 20
24 1 40
24 2 13
24 3 9
24 4 14
24 5 32
24 6 43
24 7 33
24 8 48
24 9 6
24 10 14
24 11 47
24 12 18
24 13 48
24 14 3
24 15 2
24 16 22
24 17 3
24 18 1
24 19 24
24 20 50
24 21 31
24 22 37
24 23 31
25 0 7
25 1 4
25 2 35
25 3 50
25 4 37
25 5 33
25 6 15
25 7 49
25 8 28
25 9 31
25 10 20
25 11 30
25 12 7
25 13 23
25 14 9
25 15 49
25 16 8
25 17 17
25 18 25
25 19 5
25 20 36
25 21 1
25 22 35
25 23 32
25 24 32
26 0 27
26 1 2
26 2 3
26 3 44
26 4 37
26 5 45
26 6 27
26 7 24
26 8 17
26 9 18
26 10 40
26 11 2
26 12 4
26 13 5
26 14 24
26 15 2
26 16 5
26 17 23
26 18 27
26 19 48
26 20 39
26 21 13
26 22 23
26 23 47
26 24 26
26 25 34
27 0 32
27 1 12
27 2 4
27 3 6
27 4 3
27 5 49
27 6 48
27 7 11
27 8 4
27 9 39
27 10 15
27 11 7
27 12 10
27 13 14
27 14 31
27 15 42
27 16 37
27 17 38
27 18 25
27 19 6
27 20 6
27 21 8
27 22 34
27 23 22
27 24 4
27 25 23
27 26 25
28 0 44
28 1 45
28 2 50
28 3 21
28 4 43
28 5 34
28 6 20
28 7 3
28 8 17
28 9 4
28 10 45
28 11 19
28 12 26
28 13 5
28 14 26
28 15 15
28 16 35
28 17 44
28 18 21
28 19 19
28 20 13
28 21 29
28 22 40
28 23 12
28 24 13
28 25 30
28 26 4
28 27 34
29 0 5
29 1 7
29 2 28
29 3 42
29 4 5
29 5 23
29 6 46
29 7 43
29 8 6
29 9 24
29 10 24
29 11 42
29 12 19
29 13 34
29 14 38
29 15 48
29 16 13
29 17 11
29 18 12
29 19 15
29 20 35
29 21 1
29 22 32
29 23 18
29 24 19
29 25 49
29 26 41
29 27 44
29 28 49
30 0 32
30 1 42
30 2 40
30 3 1
30 4 48
30 5 26
30 6 42
30 7 14
30 8 13
30 9 8
30 10 9
30 11 28
30 12 3
30 13 27
30 14 39
30 15 18
30 16 34
30 17 43
30 18 32
30 19 3
30 20 35
30 21 14
30 22 49
30 23 3
30 24 37
30 25 33
30 26 9
30 27 24
30 28 9
30 29 14
31 0 35
31 1 14
31 2 24
31 3 21
31 4 37
31 5 32
31 6 33
31 7 44
31 8 48
31 9 9
31 10 39
31 11 7
31 12 42
31 13 21
31 14 35
31 15 23
31 16 12
31 17 27
31 18 10
31 19 20
31 20 22
31 21 44
31 22 22
31 23 18
31 24 34
31 25 27
31 26 19
31 27 5
31 28 34
31 29 24
31 30 20
32 0 24
32 1 14
32 2 43
32 3 27
32 4 40
32 5 30
32 6 11
32 7 38
32 8 27
32 9 28
32 10 42
32 11 28
32 12 13
32 13 40
32 14 4
32 15 22
32 16 49
32 17 8
32 18 11
32 19 12
32 20 29
32 21 12
32 22 5
32 23 25
32 24 29
32 25 46
32 26 42
32 27 49
32 28 31
32 29 34
32 30 46
32 31 21
33 0 29
33 1 1
33 2 1
33 3 38
33 4 46
33 5 27
33 6 48
33 7 39
33 8 37
33 9 22
33 10 41
33 11 31
33 12 43
33 13 14
33 14 1
33 15 35
33 16 35
33 17 26
33 18 46
33 19 9
33 20 30
33 21 4
33 22 24
33 23 32
33 24 18
33 25 46
33 26 26
33 27 45
33 28 43
33 29 18
33 30 2
33 31 5
33 32 33
34 0 32
34 1 35
34 2 17
34 3 36
34 4 12
34 5 50
34 6 32
34 7 8
34 8 18
34 9 1
34 10 50
34 11 21
34 12 3
34 13 47
34 14 35
34 15 7
34 16 46
34 17 19
34 18 16
34 19 34
34 20 45
34 21 13
34 22 44
34 23 31
34 24 8
34 25 7
34 26 15
34 27 25
34 28 40
34 29 39
34 30 48
34 31 35
34 32 38
34 33 32
35 0 5
35 1 14
35 2 21
35 3 20
35 4 15
35 5 44
35 6 31
35 7 43
35 8 16
35 9 19
35 10 10
35 11 41
35 12 5
35 13 37
35 14 6
35 15 25
35 16 22
35 17 9
35 18 43
35 19 7
35 20 1
35 21 32
35 22 42
35 23 11
35 24 33
35 25 17
35 26 29
35 27 41
35 28 33
35 29 31
35 30 19
35 31 12
35 32 5
35 33 34
35 34 21
36 0 13
36 1 13
36 2 24
36 3 27
36 4 12
36 5 17
36 6 17
36 7 22
36 8 39
36 9 22
36 10 49
36 11 25
36 12 25
36 13 12
36 14 25
36 15 4
36 16 17
36 17 7
36 18 13
36 19 25
36 20 15
36 21 17
36 22 12
36 23 14
36 24 31
36 25 26
36 26 20
36 27 22
36 28 37
36 29 7
36 30 8
36 31 34
36 32 35
36 33 3
36 34 1
36 35 50
37 0 30
37 1 20
37 2 50
37 3 39
37 4 16
37 5 35
37 6 14
37 7 36
37 8 42
37 9 2
37 10 10
37 11 2
37 12 32
37 13 7
37 14 40
37 15 28
37 16 49
37 17 3
37 18 14
37 19 49
37 20 19
37 21 4
37 22 48
37 23 19
37 24 6
37 25 17
37 26 5
37 27 18
37 28 44
37 29 45
37 30 4
37 31 50
37 32 47
37 33 1
37 34 11
37 35 1
37 36 12
38 0 45
38 1 5
38 2 5
38 3 17
38 4 5
38 5 50
38 6 5
38 7 17
38 8 15
38 9 6
38 10 35
38 11 47
38 12 28
38 13 31
38 14 42
38 15 11
38 16 34
38 17 16
38 18 29
38 19 12
38 20 29
38 21 3
38 22 38
38 23 3
38 24 1
38 25 42
38 26 7
38 27 43
38 28 22
38 29 3
38 30 16
38 31 31
38 32 26
38 33 1
38 34 12
38 35 7
38 36 16
38 37 40
39 0 7
39 1 20
39 2 41
39 3 34
39 4 30
39 5 46
39 6 47
39 7 34
39 8 30
39 9 3
39 10 42
39 11 29
39 12 1
39 13 41
39 14 7
39 15 42
39 16 44
39 17 30
39 18 19
39 19 50
39 20 11
39 21 28
39 22 5
39 23 40
39 24 32
39 25 50
39 26 6
39 27 34
39 28 29
39 29 38
39 30 35
39 31 38
39 32 50
39 33 20
39 34 13
39 35 26
39 36 15
39 37 43
39 38 17
